p edge 570 569
e 1 295
e 1 557
e 1 312
e 2 546
e 2 533
e 3 433
e 3 400
e 4 265
e 4 518
e 4 342
e 5 115
e 6 152
e 6 110
e 7 55
e 7 489
e 7 361
e 8 353
e 8 73
e 9 506
e 9 568
e 10 493
e 10 438
e 10 115
e 11 26
e 12 248
e 12 118
e 13 282
e 14 251
e 15 229
e 16 420
e 16 96
e 17 143
e 18 105
e 19 559
e 20 298
e 20 115
e 21 568
e 21 390
e 22 347
e 22 568
e 23 90
e 24 433
e 25 229
e 25 198
e 26 423
e 26 151
e 26 48
e 27 33
e 28 38
e 28 547
e 28 404
e 28 86
e 29 340
e 29 119
e 30 498
e 30 399
e 31 32
e 31 96
e 33 178
e 33 357
e 33 339
e 34 224
e 35 239
e 36 518
e 37 523
e 37 379
e 39 204
e 40 392
e 40 272
e 40 112
e 41 253
e 41 374
e 41 367
e 42 559
e 43 529
e 43 316
e 44 430
e 45 99
e 45 471
e 46 516
e 46 261
e 46 447
e 47 126
e 47 234
e 48 251
e 49 94
e 49 113
e 50 226
e 51 460
e 52 101
e 52 459
e 52 566
e 52 187
e 52 267
e 53 258
e 53 95
e 54 285
e 56 382
e 56 101
e 57 164
e 58 177
e 58 235
e 59 458
e 59 465
e 59 521
e 60 246
e 60 223
e 60 556
e 61 355
e 61 411
e 61 169
e 62 433
e 63 383
e 63 456
e 63 322
e 64 426
e 64 212
e 65 349
e 66 230
e 66 349
e 66 220
e 66 425
e 67 285
e 68 189
e 68 217
e 69 160
e 70 235
e 70 474
e 70 241
e 71 305
e 71 191
e 71 358
e 71 251
e 72 122
e 72 537
e 72 442
e 72 339
e 73 362
e 73 527
e 74 156
e 74 176
e 75 324
e 75 563
e 75 467
e 76 103
e 76 551
e 77 221
e 78 403
e 78 115
e 78 153
e 79 345
e 80 451
e 80 293
e 81 114
e 81 247
e 81 88
e 82 130
e 82 239
e 83 466
e 83 554
e 83 142
e 84 480
e 84 430
e 85 105
e 86 439
e 87 174
e 87 291
e 88 498
e 89 95
e 90 390
e 91 100
e 92 368
e 93 353
e 94 222
e 95 434
e 96 559
e 96 241
e 97 376
e 97 100
e 98 271
e 100 442
e 101 408
e 102 550
e 103 470
e 104 133
e 104 390
e 105 128
e 106 532
e 106 363
e 107 307
e 107 138
e 108 388
e 109 277
e 109 306
e 110 510
e 110 436
e 111 164
e 111 392
e 112 348
e 112 445
e 113 157
e 115 259
e 116 566
e 117 301
e 118 550
e 119 509
e 119 545
e 119 395
e 120 371
e 121 197
e 123 414
e 123 253
e 124 343
e 124 254
e 125 256
e 125 468
e 127 297
e 128 322
e 128 308
e 129 314
e 129 132
e 131 527
e 131 550
e 131 479
e 131 547
e 132 487
e 134 342
e 134 269
e 135 406
e 135 308
e 136 369
e 136 502
e 136 358
e 137 468
e 137 476
e 138 271
e 139 439
e 139 473
e 140 285
e 141 465
e 142 215
e 142 155
e 143 201
e 143 253
e 144 397
e 144 433
e 145 374
e 146 167
e 147 199
e 147 272
e 148 380
e 149 364
e 150 215
e 151 204
e 152 525
e 152 250
e 153 559
e 154 274
e 155 237
e 157 283
e 157 393
e 157 220
e 158 547
e 159 450
e 159 417
e 159 243
e 160 512
e 160 279
e 161 251
e 162 263
e 162 464
e 162 292
e 162 449
e 163 457
e 163 487
e 164 224
e 164 274
e 165 168
e 166 287
e 166 269
e 166 453
e 167 243
e 167 182
e 168 474
e 169 389
e 170 319
e 170 415
e 170 479
e 171 424
e 171 417
e 172 389
e 173 277
e 174 485
e 175 225
e 176 333
e 179 555
e 179 309
e 180 324
e 181 565
e 181 531
e 182 423
e 183 275
e 183 268
e 183 272
e 184 535
e 184 341
e 185 411
e 186 275
e 187 473
e 188 398
e 188 286
e 190 323
e 191 471
e 192 218
e 193 512
e 194 406
e 195 375
e 195 388
e 195 452
e 195 395
e 195 261
e 196 470
e 197 387
e 197 551
e 197 431
e 198 409
e 200 564
e 200 394
e 202 548
e 202 373
e 203 552
e 204 281
e 204 231
e 205 228
e 205 472
e 206 331
e 206 320
e 207 270
e 208 439
e 209 352
e 209 271
e 210 486
e 210 322
e 211 409
e 212 431
e 213 371
e 214 225
e 216 289
e 216 367
e 216 294
e 216 441
e 217 327
e 217 336
e 217 570
e 218 522
e 219 429
e 219 495
e 219 453
e 219 524
e 220 366
e 221 506
e 223 304
e 225 436
e 225 500
e 225 280
e 226 236
e 226 560
e 226 500
e 227 433
e 228 482
e 229 234
e 231 346
e 231 318
e 232 395
e 233 391
e 234 313
e 235 356
e 236 351
e 237 393
e 238 480
e 239 542
e 240 258
e 241 293
e 241 279
e 242 567
e 243 421
e 244 364
e 244 286
e 245 488
e 245 497
e 245 282
e 246 301
e 247 302
e 249 371
e 249 485
e 250 410
e 251 487
e 252 274
e 254 266
e 254 284
e 255 386
e 255 422
e 255 274
e 256 402
e 256 530
e 256 567
e 257 349
e 258 501
e 260 301
e 262 446
e 264 465
e 266 461
e 267 389
e 268 484
e 268 541
e 270 273
e 270 513
e 271 518
e 272 321
e 272 435
e 272 490
e 272 499
e 276 520
e 278 520
e 279 344
e 280 447
e 282 451
e 284 434
e 284 534
e 285 383
e 286 337
e 286 538
e 286 360
e 288 553
e 289 513
e 290 544
e 291 528
e 292 504
e 293 443
e 294 312
e 296 332
e 297 501
e 299 372
e 300 315
e 303 413
e 303 568
e 304 455
e 306 361
e 306 400
e 307 508
e 308 520
e 309 416
e 310 505
e 310 542
e 311 546
e 313 359
e 315 563
e 316 374
e 317 520
e 317 419
e 318 561
e 320 409
e 322 354
e 322 549
e 323 541
e 324 483
e 324 469
e 325 544
e 325 454
e 326 434
e 328 344
e 328 554
e 329 553
e 330 441
e 330 477
e 332 383
e 333 449
e 334 530
e 335 419
e 335 413
e 336 389
e 337 409
e 338 463
e 339 418
e 339 556
e 340 540
e 341 422
e 344 528
e 345 399
e 345 415
e 347 350
e 348 385
e 352 514
e 354 445
e 359 472
e 360 522
e 363 377
e 363 417
e 365 498
e 368 553
e 370 485
e 372 417
e 373 442
e 378 434
e 379 503
e 379 566
e 380 421
e 381 479
e 384 413
e 389 553
e 390 489
e 391 550
e 394 507
e 396 460
e 399 431
e 400 430
e 401 474
e 404 569
e 405 454
e 406 491
e 407 564
e 410 522
e 410 507
e 411 432
e 412 554
e 414 475
e 416 562
e 418 425
e 425 467
e 426 478
e 427 498
e 428 493
e 430 552
e 434 444
e 437 517
e 437 562
e 438 521
e 440 466
e 441 526
e 446 570
e 447 542
e 447 498
e 448 499
e 449 557
e 453 477
e 453 558
e 454 517
e 457 562
e 460 489
e 461 487
e 462 515
e 463 544
e 469 492
e 470 494
e 476 531
e 476 544
e 478 556
e 481 536
e 482 536
e 485 524
e 496 519
e 497 534
e 501 515
e 511 567
e 519 565
e 524 543
e 533 552
e 539 550
e 552 560
